c --- [ banner ] -------------------------------------------------------------
c 
c CaDiCaL SAT Solver
c Copyright (c) 2016-2025
c A. Biere, M. Fleury, N. Froleyks, K. Fazekas, F. Pollitt, T. Faller
c JKU Linz, University of Freiburg, TU Wien
c 
c Version 3.0.0 7b99c07f0bcab5824a5a3ce62c7066554017f641
c Apple clang version 21.0.0 (clang-2100.0.123.102) -Wall -Wextra -O3 -DNDEBUG -DNCLOSEFROM
c Thu Apr 23 22:35:47 PDT 2026 Darwin dada-mun-26.local 25.4.0 arm64
c 
c --- [ limit ] --------------------------------------------------------------
c 
c setting time limit to 180 seconds real time (due to '-t 180')
c 
c --- [ parsing input ] ------------------------------------------------------
c 
c reading DIMACS file from '/private/tmp/p97-ordinal-fourDistinct.cnf'
c opening file to read '/private/tmp/p97-ordinal-fourDistinct.cnf'
c found 'p cnf 58257 315043' header
c parsed 315043 clauses in 0.06 seconds process time
c 
c --- [ options ] ------------------------------------------------------------
c 
c   --compact=false                (different from default 'true')
c   --congruence=false             (different from default 'true')
c   --decompose=false              (different from default 'true')
c   --deduplicate=false            (different from default 'true')
c   --eagersubsume=false           (different from default 'true')
c   --elim=false                   (different from default 'true')
c   --factor=false                 (different from default 'true')
c   --factorunbump=false           (different from default 'true')
c   --fastelim=false               (different from default 'true')
c   --inprobing=false              (different from default 'true')
c   --inprocessing=false           (different from default 'true')
c   --preprocesslight=false        (different from default 'true')
c   --probe=false                  (different from default 'true')
c   --subsume=false                (different from default 'true')
c   --sweep=false                  (different from default 'true')
c   --ternary=false                (different from default 'true')
c   --transred=false               (different from default 'true')
c   --vivify=false                 (different from default 'true')
c 
c --- [ solving ] ------------------------------------------------------------
c 
c time measured in process time since initialization
c 
c  seconds  reduction conflicts       size tier2        variables
c         MB    restarts   redundant    glue  trail          remaining
c          level     rate       size/glu tier1  irredundant
c 
c *  0.06  0  0 0   0  0    0    0 0.0 0 0 2 6  0% 314245 57611 99%
c )  0.06  0  0 0   0  0    0    0 0.0 0 0 2 6  0% 314245 57611 99%
c {  0.06  0  0 0   0  0    0    0 0.0 0 0 2 6  0% 314245 57611 99%
c i  0.06  0  9 0   0  3    6    5 2.2 2 1 2 6  1% 314245 57609 99%
c i  0.06  0 10 0   0  3   10    7 2.3 2 1 2 6  2% 314245 57534 99%
c i  0.06  0 11 0   0  3   20   14 2.3 2 1 2 6  2% 314245 57400 99%
c i  0.06  0 14 0   0  3   29   21 2.2 2 1 2 6  2% 314245 57281 98%
c i  0.06  0 14 0   0  3   30   21 2.3 2 1 2 6  2% 314245 57259 98%
c i  0.06  0 14 0   0  3   31   21 2.3 2 1 2 6  2% 314245 57258 98%
c i  0.06  0 53 0   2  5   76   62 1.9 2 1 2 6  5% 314245 57234 98%
c i  0.06  0 123 0   5 20   94   78 1.4 4 3 2 6  7% 314245 57233 98%
c i  0.06  0 121 0   6 20   95   78 1.4 4 3 2 6  7% 314245 57232 98%
c i  0.06  0 119 0   6 19   97   78 1.4 4 3 2 6  7% 314245 57229 98%
c i  0.07  0 138 0  11 32  115   93 1.5 4 3 2 6  7% 314245 57227 98%
c i  0.07  0 167 0  17 42  138  112 1.4 4 3 2 6  8% 314245 57226 98%
c i  0.07  0 155 0  39 33  244  207 1.5 5 3 2 6  9% 314245 57225 98%
c i  0.08  0 139 0  54 31  297  256 1.5 6 4 2 6  9% 314245 57216 98%
c -  0.09  0 138 1  56 31  300  200 1.5 6 4 2 6  9% 309713 57215 98%
c i  0.10  0 4564 1  65 95  585  380 1.5 5 4 2 6 27% 309713 57211 98%
c -  0.17  0 2692 2 133 69  945  599 1.5 6 4 2 6 23% 309693 57211 98%
c 
c  seconds    reduction conflicts       size tier2        variables
c         MB      restarts   redundant    glue  trail          remaining
c           level      rate       size/glu tier1  irredundant
c 
c i  0.18  0 2587 2 143 67  988  628 1.5 6 4 2 6 23% 309693 57210 98%
c }  0.19  0 2552 2 146 66 1002  640 1.5 6 4 2 6 23% 309693 57210 98%
c [  0.19  0  0 2 146  0 1002  640 0.0 0 0 2 6  0% 309693 57210 98%
c O  0.19  0 28 2 146 29 1003  641 1.1 15 14 2 6  5% 309693 57210 98%
c i  0.19  0 43 2 146  4 1049  686 1.4 11 8 2 6  9% 309693 57209 98%
c ]  0.28  0 100 2 146  3 1222  852 3.6 28 8 2 6 30% 309693 57209 98%
c {  0.28  0 2552 2 146 66 1222  852 1.5 6 4 2 6 23% 309693 57209 98%
c -  0.44  0 1378 3 332 50 2093 1267 1.6 8 5 2 6 23% 309681 57209 98%
c O  0.56  0 947 3 440 40 3005 2006 1.7 8 5 2 6 23% 309681 57209 98%
c i  0.60  0 831 3 466 36 3408 2378 1.7 9 5 2 6 23% 309681 57208 98%
c -  0.66  0 751 4 487 34 3801 2202 1.7 9 5 2 6 23% 309672 57208 98%
c }  0.67  0 737 4 500 33 3878 2267 1.7 9 5 2 6 23% 309672 57208 98%
c [  0.67  0 100 4 500  3 3878 2267 3.6 28 8 2 6 30% 309672 57208 98%
c i  0.79  0 115 4 501  3 5096 3382 2.4 26 11 5 12 30% 309672 57207 98%
c i  0.82  0 107 4 501  3 5484 3733 2.3 24 11 5 12 31% 309672 57206 98%
c i  0.83  0 107 4 501  3 5496 3743 2.3 24 11 5 12 31% 309672 57203 98%
c i  0.83  0 107 4 501  3 5527 3771 2.3 24 11 5 11 31% 309672 57197 98%
c i  0.83  0 107 4 501  3 5531 3774 2.3 24 11 5 11 31% 309672 57195 98%
c I  0.87  0 96 4 502  3 6007 4221 2.2 26 12 5 11 29% 309672 57195 98%
c -  0.91  0 96 5 502  3 6098 3064 2.2 26 12 5 12 29% 309599 57195 98%
c 
c  seconds  reduction conflicts       size   tier2         variables
c         MB    restarts   redundant     glue    trail          remaining
c          level     rate       size/glue  tier1   irredundant
c 
c i  1.03  0 96 5 502  3 7429 4325 2.1 26 12 4 13 30% 309599 57194 98%
c ]  1.11  0 96 5 503  3 8200 5025 2.0 25 13 4 13 29% 309599 57194 98%
c {  1.11  0 737 5 503 33 8200 5025 1.7 9 5 2 6 23% 309599 57194 98%
c -  1.27  0 618 6 702 33 9010 4021 1.7 9 5 2 6 23% 309593 57194 98%
c i  1.32  0 558 6 731 30 9614 4524 1.7 9 5 2 3 23% 309593 57193 98%
c #  1.36  0 527 6 760 29 10008 4850 1.7 9 5 2 3 24% 309593 57193 98%
c -  1.68  0 392 7 1019 25 12548 4612 1.7 9 5 2 3 23% 309584 57193 98%
c B  1.98  0 323 7 1271 22 15017 6769 1.7 10 6 2 3 24% 309584 57193 98%
c }  1.98  0 323 7 1272 22 15021 6773 1.7 10 6 2 3 24% 309584 57193 98%
c [  1.98  0 96 7 1272  3 15021 6773 2.0 25 13 4 13 29% 309584 57193 98%
c -  2.15  0 97 8 1273  3 16722 5788 2.0 27 13 4 13 29% 309584 57193 98%
c i  2.33  0 93 8 1274  3 18301 7281 2.0 26 13 4 13 29% 309584 57192 98%
c B  2.62  0 84 8 1275  3 21018 9880 1.9 30 16 4 13 27% 309584 57192 98%
c -  2.71  0 83 9 1275  3 21540 6604 1.9 30 16 3 11 26% 309575 57192 98%
c ]  2.93  0 81 9 1275  3 23416 8411 1.8 31 17 3 11 26% 309575 57192 98%
c {  2.93  0 323 9 1275 22 23416 8411 1.7 10 6 2 3 24% 309575 57192 98%
c i  3.27  0 279 9 1509 21 26162 10739 1.7 10 6 2 3 24% 309575 57191 98%
c i  3.30  0 275 9 1535 20 26480 11009 1.7 10 6 2 3 24% 309575 57188 98%
c -  3.40  0 269 10 1581 20 27009 7752 1.7 10 6 2 3 24% 309556 57188 98%
c W  3.62  0 256 10 1672 20 28019 8597 1.8 10 6 2 3 24% 309556 57188 98%
c 
c  seconds   reductions   conflicts       size  tier2        variables
c         MB      restarts     redundant     glue  trail          remaining
c           level       rate        size/glue tier1  irredundant
c 
c -  4.21  0 215 11 2045 17 33133 9808 1.8 10 6 2 3 24% 309556 57188 98%
c F  4.60  0 201 11 2330 17 36023 12366 1.8 10 6 2 3 24% 309556 57188 98%
c }  4.69  0 197 11 2409 17 36893 13128 1.8 10 6 2 3 24% 309556 57188 98%
c [  4.69  0 81 11 2409  3 36893 13128 1.8 31 17 3 11 26% 309556 57188 98%
c -  5.02  0 78 12 2412  3 39915 11712 1.9 30 16 3 11 26% 309556 57188 98%
c W  5.79  0 68 12 2415  2 45024 16578 1.9 30 16 3 11 25% 309556 57188 98%
c -  6.16  0 65 13 2416  2 47359 12701 1.9 31 16 3 11 24% 309556 57188 98%
c ]  6.37  0 63 13 2416  2 48924 14218 1.9 31 16 3 11 24% 309556 57188 98%
c {  6.37  0 197 13 2416 17 48924 14218 1.8 10 6 2 3 24% 309556 57188 98%
c B  7.11  0 176 13 2978 16 55025 19675 1.8 10 6 2 3 24% 309556 57188 98%
c i  7.16  0 175 13 3012 16 55445 20046 1.8 10 6 2 3 24% 309556 57185 98%
c -  7.19  0 175 14 3012 16 55470 14590 1.8 10 6 2 3 24% 309543 57185 98%
c -  8.43  0 157 15 3976 16 64249 17285 1.8 11 6 2 3 24% 309543 57185 98%
c W  8.74  0 153 15 4112 15 66026 18894 1.8 11 6 2 3 24% 309543 57185 98%
c }  9.03  0 150 15 4339 15 68045 20714 1.8 11 6 2 3 24% 309543 57185 98%
c [  9.03  0 63 15 4339  2 68045 20714 1.9 31 16 3 11 24% 309543 57185 98%
c -  9.65  0 62 16 4340  2 73695 19474 1.9 30 16 3 10 24% 309543 57185 98%
c O 10.16  0 62 16 4341  2 78027 23580 2.0 30 15 3 10 24% 309543 57185 98%
c - 10.91  0 58 17 4345  2 83811 20783 2.0 30 15 3 10 24% 309543 57185 98%
c ] 11.55  0 56 17 4347  2 88430 25296 2.0 31 16 3 10 24% 309543 57185 98%
c 
c  seconds   reductions   conflicts        size  tier2        variables
c         MB      restarts      redundant     glue  trail          remaining
c           level       rate         size/glue tier1  irredundant
c 
c { 11.55  0 150 17 4347 15 88430 25296 1.8 11 6 2 3 24% 309543 57185 98%
c # 11.90  0 146 17 4596 15 91029 27637 1.8 11 6 2 3 24% 309543 57185 98%
c - 12.47  0 142 18 4969 15 94599 22756 1.8 11 6 2 3 24% 309543 57185 98%
c B 14.23  0 135 18 6224 15 105030 32236 1.8 11 6 2 3 25% 309543 57185 98%
c - 14.42  0 134 19 6332 15 106062 25858 1.8 11 6 2 3 25% 309543 57185 98%
c i 15.08  0 131 19 6823 15 110269 29721 1.8 11 6 2 3 25% 309543 57184 98%
c } 15.35  0 130 19 7023 15 112103 31386 1.8 11 6 2 3 25% 309543 57184 98%
c [ 15.35  0 56 19 7023  2 112103 31386 2.0 31 16 3 10 24% 309543 57184 98%
c - 16.09  0 56 20 7027  2 118199 28371 2.0 31 16 3 10 24% 309536 57184 98%
c B 16.29  0 56 20 7028  2 120035 30120 2.0 31 16 3 10 24% 309536 57184 98%
c - 18.01  0 55 21 7031  2 131011 29417 2.0 34 17 3 10 23% 309536 57184 98%
c W 19.01  0 55 21 7032  2 136037 34287 2.0 34 17 3 10 23% 309536 57184 98%
c i 19.06  0 55 21 7032  2 136518 34744 2.0 34 17 3 10 23% 309536 57183 98%
c ] 19.44  0 55 21 7032  2 139440 37524 2.0 34 17 3 10 23% 309536 57183 98%
c { 19.44  0 130 21 7032 15 139440 37524 1.8 11 6 2 3 25% 309536 57183 98%
c - 20.36  0 127 22 7568 15 144507 31083 1.9 11 6 2 3 25% 309530 57183 98%
c i 20.41  0 127 22 7615 15 144886 31421 1.9 11 6 2 3 25% 309530 57179 98%
c W 21.84  0 123 22 8493 14 153043 38871 1.9 12 6 2 3 25% 309507 57179 98%
c i 22.50  0 121 22 8984 14 157060 42560 1.9 12 6 2 3 25% 309507 57178 98%
c - 22.82  0 120 23 9162 14 158674 34697 1.9 12 6 2 3 25% 309501 57178 98%
c 
c  seconds   reductions   conflicts         size  tier2        variables
c         MB      restarts       redundant     glue  trail          remaining
c           level       rate          size/glue tier1  irredundant
c 
c i 24.05  0 117 23 9910 14 166825 42202 1.9 12 6 2 3 25% 309501 57177 98%
c F 24.76  0 115 23 10444 14 171044 46043 1.9 12 6 2 3 25% 309501 57177 98%
c } 24.80  0 115 23 10469 14 171192 46182 1.9 12 6 2 3 25% 309501 57177 98%
c [ 24.80  0 55 23 10469  2 171192 46182 2.0 34 17 3 10 23% 309501 57177 98%
c - 25.10  0 55 24 10469  2 173518 38515 2.0 34 17 3 10 24% 309495 57177 98%
c - 27.20  0 53 25 10473  2 189043 40585 2.2 36 16 3 10 24% 309495 57177 98%
c I 27.33  0 53 25 10474  2 190045 41545 2.2 35 16 3 10 24% 309495 57177 98%
c - 29.36  0 54 26 10483  2 205244 41707 2.2 36 17 2 7 24% 309495 57177 98%
c ] 29.98  0 55 26 10483  2 209118 45476 2.1 37 17 2 7 24% 309495 57177 98%
c { 29.98  0 115 26 10483 14 209118 45476 1.9 12 6 2 3 25% 309495 57177 98%
c B 30.10  0 115 26 10549 14 210046 46323 1.9 12 6 2 3 25% 309495 57177 98%
c i 31.07  0 113 26 11198 14 215866 51664 1.9 12 6 2 3 25% 309495 57176 98%
c i 31.50  0 112 26 11445 14 218230 53812 1.9 12 6 2 3 25% 309495 57173 98%
c - 32.20  0 111 27 11887 14 222125 44885 1.9 12 6 2 3 25% 309476 57173 98%
c W 34.17  0 109 27 12879 14 231047 53045 1.9 12 6 2 3 25% 309476 57173 98%
c i 34.71  0 109 27 13202 14 233659 55474 1.9 12 7 2 3 25% 309476 57172 98%
c - 35.89  0 107 28 13958 14 239688 49291 1.9 12 7 2 3 25% 309470 57172 98%
c i 36.21  0 107 28 14134 14 241562 51048 1.9 13 7 2 3 26% 309470 57170 98%
c } 37.39  0 105 28 14938 14 248309 57270 1.9 13 7 2 3 25% 309470 57168 98%
c [ 37.39  0 55 28 14938  2 248309 57270 2.1 37 17 2 7 24% 309470 57168 98%
c 
c  seconds  reductions    conflicts         size   tier2        variables
c         MB      restarts       redundant     glue   trail          remaining
c          level        rate          size/glue  tier1  irredundant
c 
c B 38.02  0 57 28 14939  2 253051 61871 2.1 37 17 2 7 25% 309470 57168 98%
c - 38.87  0 59 29 14940  2 257932 52671 2.1 37 17 2 7 25% 309447 57168 98%
c W 41.80  0 57 29 14952  2 276053 70257 2.2 37 17 2 7 26% 309447 57168 98%
c - 41.95  0 57 30 14952  2 276857 54382 2.2 37 17 2 7 26% 309447 57168 98%
c ] 44.61  0 55 30 14955  2 293489 70576 2.2 38 17 2 7 26% 309447 57168 98%
c { 44.61  0 105 30 14955 14 293489 70576 1.9 13 7 2 3 25% 309447 57168 98%
c - 45.20  0 105 31 15320 13 296464 55854 1.9 13 7 2 3 25% 309447 57168 98%
c # 45.84  0 104 31 15705 13 300057 59193 1.9 13 7 2 3 25% 309447 57168 98%
c - 48.92  0 102 32 17460 13 316755 60215 1.9 13 7 2 3 26% 309447 57168 98%
c B 50.36  0 100 32 18253 13 325058 67902 1.9 13 7 2 3 26% 309447 57168 98%
c - 52.84  0 99 33 19658 13 337729 48961 1.9 13 7 1 2 26% 309447 57168 98%
c } 53.79  0 98 33 20197 13 343333 54152 1.9 13 7 1 2 26% 309447 57168 98%
c [ 53.79  0 55 33 20197  2 343333 54152 2.2 38 17 2 7 26% 309447 57168 98%
c O 54.78  0 57 33 20197  2 351059 61645 2.2 38 17 2 7 26% 309447 57168 98%
c - 56.04  0 55 34 20198  2 359386 46492 2.2 37 17 2 7 25% 309447 57168 98%
c B 58.93  0 50 34 20198  2 378060 64752 2.1 37 17 2 7 24% 309447 57168 98%
c - 59.48  0 51 35 20198  2 381727 44060 2.1 37 17 2 7 25% 309447 57168 98%
c ] 62.28  0 52 35 20205  2 400192 62085 2.1 39 18 2 7 25% 309447 57168 98%
c { 62.28  0 98 35 20205 13 400192 62085 1.9 13 7 1 2 26% 309447 57168 98%
c - 63.08  0 98 36 20620 13 404751 43613 1.9 13 7 1 2 26% 309447 57168 98%
c 
c  seconds  reductions    conflicts         size  tier2        variables
c         MB      restarts       redundant     glue  trail          remaining
c          level        rate          size/glue tier1  irredundant
c 
c W 63.99  0 98 36 20705 13 406061 44833 1.9 13 7 1 2 26% 309447 57168 98%
c - 67.76  0 96 37 22801 12 428459 46689 2.0 14 7 1 2 26% 309447 57168 98%
c F 68.74  0 95 37 23296 12 435062 52856 2.0 14 7 1 2 26% 309447 57168 98%
c - 71.96  0 95 38 25185 12 452850 50095 2.0 14 7 1 2 26% 309447 57168 98%
c B 73.84  0 93 38 26200 11 465063 61613 2.0 14 7 1 2 26% 309447 57168 98%
c } 74.01  0 93 38 26301 11 466125 62590 2.0 14 7 1 2 26% 309447 57168 98%
c [ 74.01  0 52 38 26301  2 466125 62590 2.1 39 18 2 7 25% 309447 57168 98%
c - 75.51  0 51 39 26307  2 477926 52484 2.1 38 18 2 7 25% 309447 57168 98%
c W 79.36  0 49 39 26314  2 496064 70155 2.2 39 18 2 7 25% 309447 57168 98%
c - 80.65  0 49 40 26317  2 503688 52210 2.2 39 18 2 7 25% 309447 57168 98%
c I 84.86  0 47 40 26325  2 528066 76067 2.1 39 19 2 7 25% 309447 57168 98%
c - 85.38  0 47 41 26325  2 530133 51179 2.1 39 19 2 7 25% 309447 57168 98%
c ] 85.56  0 48 41 26325  2 531257 52276 2.1 39 19 2 7 24% 309447 57168 98%
c { 85.56  0 93 41 26325 11 531257 52276 2.0 14 7 1 2 26% 309447 57168 98%
c - 90.48  0 92 42 28751 11 557265 54494 2.0 14 7 1 2 27% 309447 57168 98%
c W 91.52  0 92 42 29083 11 561071 58046 2.0 14 7 1 2 27% 309447 57168 98%
c - 96.23  0 91 43 31292 11 585083 58545 2.0 14 7 1 2 27% 309447 57168 98%
c # 98.00  0 90 43 32094 11 595073 67880 2.0 14 7 1 2 27% 309447 57168 98%
c } 101.21  0 90 43 33512 11 610950 82632 2.0 14 7 1 2 27% 309447 57168 98%
c [ 101.21  0 48 43 33512  2 610950 82632 2.1 39 19 2 7 24% 309447 57168 98%
c 
c  seconds   reductions    conflicts         size   tier2        variables
c          MB      restarts       redundant     glue   trail          remaining
c           level        rate          size/glue  tier1  irredundant
c 
c - 101.64  0 48 44 33512  2 613588 61485 2.1 39 19 2 7 24% 309447 57168 98%
c i 101.71  0 48 44 33512  2 614171 62048 2.1 39 19 2 7 24% 309447 57165 98%
c B 104.34  0 48 44 33519  2 630078 77459 2.1 39 18 2 7 24% 309447 57165 98%
c - 106.57  0 49 45 33526  2 642776 62338 2.1 40 19 2 7 24% 309434 57165 98%
c W 111.20  0 49 45 33534  2 666082 85202 2.1 42 20 2 7 24% 309434 57165 98%
c - 112.27  0 49 46 33539  2 672651 60693 2.1 42 20 2 7 24% 309434 57165 98%
c ] 115.71  0 48 46 33543  2 693832 81438 2.0 42 20 2 7 24% 309434 57165 98%
c { 115.71  0 90 46 33543 11 693832 81438 2.0 14 7 1 2 27% 309434 57165 98%
c B 117.53  0 90 46 34347 10 703083 90082 2.0 14 7 1 2 27% 309434 57165 98%
c - 117.60  0 90 47 34366 10 703212 61490 2.0 14 7 1 2 27% 309434 57165 98%
c - 123.43  0 88 48 36881 10 734460 65487 2.0 15 7 1 2 27% 309434 57165 98%
c W 124.85  0 89 48 37386 10 741084 71680 2.0 15 7 1 2 27% 309434 57165 98%
c - 130.26  0 89 49 39738 10 766395 69584 2.0 15 7 1 2 27% 309434 57165 98%
c F 132.78  0 88 49 40797 10 780087 82380 2.1 15 7 1 2 27% 309434 57165 98%
c } 134.53  0 88 49 41509 10 789750 91431 2.1 15 7 1 2 27% 309434 57165 98%
c [ 134.53  0 48 49 41509  2 789750 91431 2.0 42 20 2 7 24% 309434 57165 98%
c - 135.98  0 49 50 41509  2 799016 72432 2.1 41 20 2 7 24% 309434 57165 98%
c O 139.81  0 54 50 41510  2 820090 93013 2.1 44 21 2 7 25% 309434 57165 98%
c - 141.89  0 52 51 41510  2 832326 72741 2.1 44 21 2 7 25% 309434 57165 98%
c B 146.83  0 49 51 41511  2 861091 100895 2.0 44 22 2 7 24% 309434 57165 98%
c 
c  seconds   reductions    conflicts         size   tier2        variables
c          MB      restarts       redundant     glue   trail          remaining
c           level        rate          size/glue  tier1  irredundant
c 
c - 147.65  0 50 52 41511  2 866321 70929 2.0 43 22 2 7 24% 309434 57165 98%
c ] 150.83  0 50 52 41511  2 886054 90185 2.1 43 21 2 7 23% 309434 57165 98%
c { 150.83  0 88 52 41511 10 886054 90185 2.1 15 7 1 2 27% 309434 57165 98%
c - 153.64  0 88 53 42717 10 901007 73242 2.1 15 7 1 2 27% 309434 57165 98%
c B 153.99  0 88 53 42898 10 903093 75209 2.1 15 7 1 2 27% 309434 57165 98%
c - 160.31  0 87 54 45862 10 936378 77704 2.1 15 7 1 2 27% 309434 57165 98%
c W 163.16  0 87 54 46552 10 946095 86810 2.1 15 7 1 2 27% 309434 57165 98%
c - 168.18  0 86 55 48757  9 972436 82005 2.1 15 7 1 2 27% 309434 57165 98%
c # 171.49  0 86 55 50088  9 990096 98509 2.1 15 7 1 2 27% 309434 57165 98%
c } 172.51  0 86 55 50525  9 994861 103020 2.1 15 7 1 2 27% 309434 57165 98%
c [ 172.51  0 50 55 50525  2 994861 103020 2.1 43 21 2 7 23% 309434 57165 98%
c - 174.61  0 49 56 50525  2 1009183 84886 2.1 42 20 2 7 23% 309434 57165 98%
c ] 179.90  0 47 56 50539  2 1035099 110229 2.1 41 19 2 7 23% 309434 57165 98%
c ? 179.90  0 47 56 50539  2 1035099 110229 2.1 41 19 2 7 23% 309434 57165 98%
c 
c --- [ result ] -------------------------------------------------------------
c 
c writing result to '/private/tmp/p97-ordinal-fourDistinct.sol'
c 
c --- [ run-time profiling ] -------------------------------------------------
c 
c process time taken by individual solving procedures
c (percentage relative to process time for solving)
c 
c       179.84  100.00% search
c        96.16   53.47% unstable
c        78.55   43.68% stable
c         5.13    2.85% walk
c         0.06    0.03% parse
c         0.00    0.00% lucky
c         0.00    0.00% simplify
c   =================================
c       179.84   99.97% solve
c 
c last line shows process time for solving
c (percentage relative to total process time)
c 
c --- [ statistics ] ---------------------------------------------------------
c 
c chronological:            451844        43.65 %  of conflicts
c conflicts:               1035099      5755.60    per second
c decisions:               6710837     37315.15    per second
c fixed:                      1092         1.87 %  of all variables
c learned:                  981469        94.82 %  per conflict
c learned_lits:           35322837       100.00 %  learned literals
c minimized:                     0         0.00 %  learned literals
c shrunken:                4507095        12.76 %  learned literals
c minishrunken:            4336501        12.28 %  learned literals
c otfs:                      16198         1.56 %  of conflict
c propagations:         2157968003        12.00 M  per second
c reduced:                  870850        84.13 %  per conflict
c rephased:                     45     23002.20    interval
c restarts:                  50539        20.48    interval
c stabilizing:                  13        47.82 %  of conflicts
c subsumed:                    480         0.04 %  of all clauses
c strengthened:              15958         1.23 %  of all clauses
c ticks:               10876268443         5.04    propagation
c walked:                       14     73935.64    interval
c 
c seconds are measured in process time for solving
c 
c --- [ glue usage ] ---------------------------------------------------------
c 
c focused glue 1 used 1105552 clauses 64.38% accumulated 64.38% tier1
c focused glue 2 used 285040 clauses 16.60% accumulated 80.98% tier2
c 
c stable glue 2 used 535207 clauses 12.67% accumulated 55.93% tier1
c stable glue 3 used 247244 clauses 5.854% accumulated 61.79%
c stable glue 4-5 used 404902 clauses 9.587% accumulated 71.38%
c stable glue 6 used 145870 clauses 3.453% accumulated 74.83%
c stable glue 7 used 123849 clauses 2.932% accumulated 77.76% tier2
c 
c 
c --- [ resources ] ----------------------------------------------------------
c 
c total process time since initialization:       179.90    seconds
c total real time since initialization:          180.02    seconds
c maximum resident set size of process:       379024.00    MB
c 
c --- [ shutting down ] ------------------------------------------------------
c 
c exit 0
